p cnf 427 1268
c weights 1.0 1.0 2.718281828459045 0.36787944117144233 2.718281828459045 0.36787944117144233 2.718281828459045 0.36787944117144233 2.718281828459045 0.36787944117144233 2.718281828459045 0.36787944117144233 2.718281828459045 0.36787944117144233 2.718281828459045 0.36787944117144233 1.0 1.0 2.718281828459045 0.36787944117144233 2.718281828459045 0.36787944117144233 2.718281828459045 0.36787944117144233 2.718281828459045 0.36787944117144233 1.0 1.0 2.718281828459045 0.36787944117144233 2.718281828459045 0.36787944117144233 2.718281828459045 0.36787944117144233 2.718281828459045 0.36787944117144233 2.718281828459045 0.36787944117144233 2.718281828459045 0.36787944117144233 1.0 1.0 2.718281828459045 0.36787944117144233 2.718281828459045 0.36787944117144233 2.718281828459045 0.36787944117144233 2.718281828459045 0.36787944117144233 2.718281828459045 0.36787944117144233 2.718281828459045 0.36787944117144233 2.718281828459045 0.36787944117144233 2.718281828459045 0.36787944117144233 2.718281828459045 0.36787944117144233 2.718281828459045 0.36787944117144233 2.718281828459045 0.36787944117144233 2.718281828459045 0.36787944117144233 1.0 1.0 2.718281828459045 0.36787944117144233 2.718281828459045 0.36787944117144233 2.718281828459045 0.36787944117144233 2.718281828459045 0.36787944117144233 2.718281828459045 0.36787944117144233 2.718281828459045 0.36787944117144233 2.718281828459045 0.36787944117144233 2.718281828459045 0.36787944117144233 1.0 1.0 2.718281828459045 0.36787944117144233 2.718281828459045 0.36787944117144233 2.718281828459045 0.36787944117144233 2.718281828459045 0.36787944117144233 2.718281828459045 0.36787944117144233 2.718281828459045 0.36787944117144233 1.0 1.0 2.718281828459045 0.36787944117144233 2.718281828459045 0.36787944117144233 2.718281828459045 0.36787944117144233 2.718281828459045 0.36787944117144233 2.718281828459045 0.36787944117144233 2.718281828459045 0.36787944117144233 1.0 1.0 2.718281828459045 0.36787944117144233 2.718281828459045 0.36787944117144233 2.718281828459045 0.36787944117144233 2.718281828459045 0.36787944117144233 2.718281828459045 0.36787944117144233 2.718281828459045 0.36787944117144233 1.0 1.0 2.718281828459045 0.36787944117144233 2.718281828459045 0.36787944117144233 2.718281828459045 0.36787944117144233 2.718281828459045 0.36787944117144233 2.718281828459045 0.36787944117144233 2.718281828459045 0.36787944117144233 2.718281828459045 0.36787944117144233 2.718281828459045 0.36787944117144233 1.0 1.0 2.718281828459045 0.36787944117144233 2.718281828459045 0.36787944117144233 2.718281828459045 0.36787944117144233 2.718281828459045 0.36787944117144233 1.0 1.0 2.718281828459045 0.36787944117144233 2.718281828459045 0.36787944117144233 2.718281828459045 0.36787944117144233 2.718281828459045 0.36787944117144233 2.718281828459045 0.36787944117144233 1.0 1.0 2.718281828459045 0.36787944117144233 2.718281828459045 0.36787944117144233 2.718281828459045 0.36787944117144233 2.718281828459045 0.36787944117144233 2.718281828459045 0.36787944117144233 2.718281828459045 0.36787944117144233 1.0 1.0 2.718281828459045 0.36787944117144233 2.718281828459045 0.36787944117144233 2.718281828459045 0.36787944117144233 2.718281828459045 0.36787944117144233 2.718281828459045 0.36787944117144233 2.718281828459045 0.36787944117144233 2.718281828459045 0.36787944117144233 2.718281828459045 0.36787944117144233 1.0 1.0 2.718281828459045 0.36787944117144233 2.718281828459045 0.36787944117144233 2.718281828459045 0.36787944117144233 1.0 1.0 2.718281828459045 0.36787944117144233 2.718281828459045 0.36787944117144233 2.718281828459045 0.36787944117144233 2.718281828459045 0.36787944117144233 2.718281828459045 0.36787944117144233 1.0 1.0 2.718281828459045 0.36787944117144233 2.718281828459045 0.36787944117144233 1.0 1.0 2.718281828459045 0.36787944117144233 2.718281828459045 0.36787944117144233 2.718281828459045 0.36787944117144233 2.718281828459045 0.36787944117144233 2.718281828459045 0.36787944117144233 2.718281828459045 0.36787944117144233 1.0 1.0 2.718281828459045 0.36787944117144233 2.718281828459045 0.36787944117144233 2.718281828459045 0.36787944117144233 2.718281828459045 0.36787944117144233 2.718281828459045 0.36787944117144233 2.718281828459045 0.36787944117144233 2.718281828459045 0.36787944117144233 1.0 1.0 2.718281828459045 0.36787944117144233 2.718281828459045 0.36787944117144233 2.718281828459045 0.36787944117144233 1.0 1.0 2.718281828459045 0.36787944117144233 2.718281828459045 0.36787944117144233 2.718281828459045 0.36787944117144233 2.718281828459045 0.36787944117144233 2.718281828459045 0.36787944117144233 1.0 1.0 2.718281828459045 0.36787944117144233 2.718281828459045 0.36787944117144233 2.718281828459045 0.36787944117144233 2.718281828459045 0.36787944117144233 2.718281828459045 0.36787944117144233 2.718281828459045 0.36787944117144233 2.718281828459045 0.36787944117144233 1.0 1.0 2.718281828459045 0.36787944117144233 2.718281828459045 0.36787944117144233 2.718281828459045 0.36787944117144233 1.0 1.0 2.718281828459045 0.36787944117144233 2.718281828459045 0.36787944117144233 2.718281828459045 0.36787944117144233 2.718281828459045 0.36787944117144233 1.0 1.0 2.718281828459045 0.36787944117144233 2.718281828459045 0.36787944117144233 1.0 1.0 2.718281828459045 0.36787944117144233 2.718281828459045 0.36787944117144233 2.718281828459045 0.36787944117144233 2.718281828459045 0.36787944117144233 2.718281828459045 0.36787944117144233 2.718281828459045 0.36787944117144233 2.718281828459045 0.36787944117144233 1.0 1.0 2.718281828459045 0.36787944117144233 2.718281828459045 0.36787944117144233 2.718281828459045 0.36787944117144233 2.718281828459045 0.36787944117144233 2.718281828459045 0.36787944117144233 2.718281828459045 0.36787944117144233 1.0 1.0 2.718281828459045 0.36787944117144233 2.718281828459045 0.36787944117144233 2.718281828459045 0.36787944117144233 2.718281828459045 0.36787944117144233 2.718281828459045 0.36787944117144233 2.718281828459045 0.36787944117144233 2.718281828459045 0.36787944117144233 2.718281828459045 0.36787944117144233 1.0 1.0 2.718281828459045 0.36787944117144233 2.718281828459045 0.36787944117144233 1.0 1.0 2.718281828459045 0.36787944117144233 2.718281828459045 0.36787944117144233 2.718281828459045 0.36787944117144233 1.0 1.0 2.718281828459045 0.36787944117144233 2.718281828459045 0.36787944117144233 1.0 1.0 2.718281828459045 0.36787944117144233 2.718281828459045 0.36787944117144233 2.718281828459045 0.36787944117144233 1.0 1.0 2.718281828459045 0.36787944117144233 2.718281828459045 0.36787944117144233 2.718281828459045 0.36787944117144233 2.718281828459045 0.36787944117144233 2.718281828459045 0.36787944117144233 2.718281828459045 0.36787944117144233 1.0 1.0 2.718281828459045 0.36787944117144233 2.718281828459045 0.36787944117144233 2.718281828459045 0.36787944117144233 2.718281828459045 0.36787944117144233 2.718281828459045 0.36787944117144233 1.0 1.0 2.718281828459045 0.36787944117144233 2.718281828459045 0.36787944117144233 2.718281828459045 0.36787944117144233 2.718281828459045 0.36787944117144233 1.0 1.0 2.718281828459045 0.36787944117144233 2.718281828459045 0.36787944117144233 2.718281828459045 0.36787944117144233 2.718281828459045 0.36787944117144233 1.0 1.0 2.718281828459045 0.36787944117144233 1.0 1.0 2.718281828459045 0.36787944117144233 1.0 1.0 2.718281828459045 0.36787944117144233 2.718281828459045 0.36787944117144233 2.718281828459045 0.36787944117144233 2.718281828459045 0.36787944117144233 2.718281828459045 0.36787944117144233 1.0 1.0 2.718281828459045 0.36787944117144233 2.718281828459045 0.36787944117144233 2.718281828459045 0.36787944117144233 2.718281828459045 0.36787944117144233 2.718281828459045 0.36787944117144233 2.718281828459045 0.36787944117144233 2.718281828459045 0.36787944117144233 2.718281828459045 0.36787944117144233 2.718281828459045 0.36787944117144233 2.718281828459045 0.36787944117144233 1.0 1.0 2.718281828459045 0.36787944117144233 2.718281828459045 0.36787944117144233 2.718281828459045 0.36787944117144233 2.718281828459045 0.36787944117144233 2.718281828459045 0.36787944117144233 1.0 1.0 2.718281828459045 0.36787944117144233 2.718281828459045 0.36787944117144233 1.0 1.0 2.718281828459045 0.36787944117144233 1.0 1.0 2.718281828459045 0.36787944117144233 2.718281828459045 0.36787944117144233 2.718281828459045 0.36787944117144233 2.718281828459045 0.36787944117144233 2.718281828459045 0.36787944117144233 2.718281828459045 0.36787944117144233 1.0 1.0 2.718281828459045 0.36787944117144233 2.718281828459045 0.36787944117144233 2.718281828459045 0.36787944117144233 2.718281828459045 0.36787944117144233 2.718281828459045 0.36787944117144233 1.0 1.0 2.718281828459045 0.36787944117144233 2.718281828459045 0.36787944117144233 2.718281828459045 0.36787944117144233 1.0 1.0 2.718281828459045 0.36787944117144233 2.718281828459045 0.36787944117144233 2.718281828459045 0.36787944117144233 1.0 1.0 1.0 1.0 2.718281828459045 0.36787944117144233 2.718281828459045 0.36787944117144233 2.718281828459045 0.36787944117144233 2.718281828459045 0.36787944117144233 2.718281828459045 0.36787944117144233 1.0 1.0 2.718281828459045 0.36787944117144233 2.718281828459045 0.36787944117144233 2.718281828459045 0.36787944117144233 1.0 1.0 2.718281828459045 0.36787944117144233 2.718281828459045 0.36787944117144233 2.718281828459045 0.36787944117144233 2.718281828459045 0.36787944117144233 1.0 1.0 1.0 1.0 2.718281828459045 0.36787944117144233 1.0 1.0 2.718281828459045 0.36787944117144233 2.718281828459045 0.36787944117144233 2.718281828459045 0.36787944117144233 2.718281828459045 0.36787944117144233 2.718281828459045 0.36787944117144233 2.718281828459045 0.36787944117144233 2.718281828459045 0.36787944117144233 1.0 1.0 2.718281828459045 0.36787944117144233 2.718281828459045 0.36787944117144233 2.718281828459045 0.36787944117144233 2.718281828459045 0.36787944117144233 1.0 1.0 2.718281828459045 0.36787944117144233 1.0 1.0 2.718281828459045 0.36787944117144233 2.718281828459045 0.36787944117144233 2.718281828459045 0.36787944117144233 1.0 1.0 2.718281828459045 0.36787944117144233 2.718281828459045 0.36787944117144233 1.0 1.0 2.718281828459045 0.36787944117144233 2.718281828459045 0.36787944117144233 2.718281828459045 0.36787944117144233 1.0 1.0 1.0 1.0 2.718281828459045 0.36787944117144233 2.718281828459045 0.36787944117144233 1.0 1.0 2.718281828459045 0.36787944117144233 1.0 1.0 2.718281828459045 0.36787944117144233 1.0 1.0 2.718281828459045 0.36787944117144233 2.718281828459045 0.36787944117144233 1.0 1.0 2.718281828459045 0.36787944117144233 2.718281828459045 0.36787944117144233 1.0 1.0 2.718281828459045 0.36787944117144233 2.718281828459045 0.36787944117144233 2.718281828459045 0.36787944117144233 1.0 1.0 2.718281828459045 0.36787944117144233 2.718281828459045 0.36787944117144233 2.718281828459045 0.36787944117144233 1.0 1.0 2.718281828459045 0.36787944117144233 2.718281828459045 0.36787944117144233 1.0 1.0 1.0 1.0 2.718281828459045 0.36787944117144233 2.718281828459045 0.36787944117144233 1.0 1.0 2.718281828459045 0.36787944117144233 1.0 1.0 2.718281828459045 0.36787944117144233 1.0 1.0 2.718281828459045 0.36787944117144233 2.718281828459045 0.36787944117144233 1.0 1.0 2.718281828459045 0.36787944117144233 2.718281828459045 0.36787944117144233 2.718281828459045 0.36787944117144233 1.0 1.0 2.718281828459045 0.36787944117144233 1.0 1.0 2.718281828459045 0.36787944117144233 1.0 1.0 2.718281828459045 0.36787944117144233 2.718281828459045 0.36787944117144233 2.718281828459045 0.36787944117144233 1.0 1.0 2.718281828459045 0.36787944117144233 2.718281828459045 0.36787944117144233 1.0 1.0 2.718281828459045 0.36787944117144233 2.718281828459045 0.36787944117144233 1.0 1.0 1.0 1.0 2.718281828459045 0.36787944117144233 2.718281828459045 0.36787944117144233 1.0 1.0 2.718281828459045 0.36787944117144233 2.718281828459045 0.36787944117144233 2.718281828459045 0.36787944117144233 1.0 1.0 1.0 1.0 1.0 1.0 1.0 1.0 2.718281828459045 0.36787944117144233 2.718281828459045 0.36787944117144233 1.0 1.0 2.718281828459045 0.36787944117144233 1.0 1.0 2.718281828459045 0.36787944117144233 2.718281828459045 0.36787944117144233 1.0 1.0 2.718281828459045 0.36787944117144233 1.0 1.0 2.718281828459045 0.36787944117144233 2.718281828459045 0.36787944117144233 1.0 1.0 1.0 1.0 1.0 1.0 1.0 1.0 1.0 1.0 2.718281828459045 0.36787944117144233 2.718281828459045 0.36787944117144233 1.0 1.0 2.718281828459045 0.36787944117144233 2.718281828459045 0.36787944117144233 1.0 1.0 2.718281828459045 0.36787944117144233 2.718281828459045 0.36787944117144233 2.718281828459045 0.36787944117144233 1.0 1.0 1.0 1.0 2.718281828459045 0.36787944117144233 2.718281828459045 0.36787944117144233 1.0 1.0 2.718281828459045 0.36787944117144233 1.0 1.0 2.718281828459045 0.36787944117144233 1.0 1.0 2.718281828459045 0.36787944117144233 1.0 1.0 1.0 1.0 1.0 1.0 1.0 1.0 1.0 1.0 1.0 1.0 1.0 1.0 1.0 1.0 1.0 1.0
2 1 78 0
2 -1 -78 0
-2 1 -78 0
-2 -1 78 0
3 1 132 0
3 -1 -132 0
-3 1 -132 0
-3 -1 132 0
4 1 138 0
4 -1 -138 0
-4 1 -138 0
-4 -1 138 0
5 1 203 0
5 -1 -203 0
-5 1 -203 0
-5 -1 203 0
6 1 328 0
6 -1 -328 0
-6 1 -328 0
-6 -1 328 0
7 1 385 0
7 -1 -385 0
-7 1 -385 0
-7 -1 385 0
8 1 398 0
8 -1 -398 0
-8 1 -398 0
-8 -1 398 0
10 9 258 0
10 -9 -258 0
-10 9 -258 0
-10 -9 258 0
11 9 268 0
11 -9 -268 0
-11 9 -268 0
-11 -9 268 0
12 9 291 0
12 -9 -291 0
-12 9 -291 0
-12 -9 291 0
13 9 317 0
13 -9 -317 0
-13 9 -317 0
-13 -9 317 0
15 14 78 0
15 -14 -78 0
-15 14 -78 0
-15 -14 78 0
16 14 158 0
16 -14 -158 0
-16 14 -158 0
-16 -14 158 0
17 14 185 0
17 -14 -185 0
-17 14 -185 0
-17 -14 185 0
18 14 272 0
18 -14 -272 0
-18 14 -272 0
-18 -14 272 0
19 14 387 0
19 -14 -387 0
-19 14 -387 0
-19 -14 387 0
20 14 415 0
20 -14 -415 0
-20 14 -415 0
-20 -14 415 0
22 21 64 0
22 -21 -64 0
-22 21 -64 0
-22 -21 64 0
23 21 203 0
23 -21 -203 0
-23 21 -203 0
-23 -21 203 0
24 21 209 0
24 -21 -209 0
-24 21 -209 0
-24 -21 209 0
25 21 264 0
25 -21 -264 0
-25 21 -264 0
-25 -21 264 0
26 21 328 0
26 -21 -328 0
-26 21 -328 0
-26 -21 328 0
27 21 365 0
27 -21 -365 0
-27 21 -365 0
-27 -21 365 0
28 21 380 0
28 -21 -380 0
-28 21 -380 0
-28 -21 380 0
29 21 382 0
29 -21 -382 0
-29 21 -382 0
-29 -21 382 0
30 21 390 0
30 -21 -390 0
-30 21 -390 0
-30 -21 390 0
31 21 399 0
31 -21 -399 0
-31 21 -399 0
-31 -21 399 0
32 21 421 0
32 -21 -421 0
-32 21 -421 0
-32 -21 421 0
33 21 423 0
33 -21 -423 0
-33 21 -423 0
-33 -21 423 0
35 34 138 0
35 -34 -138 0
-35 34 -138 0
-35 -34 138 0
36 34 203 0
36 -34 -203 0
-36 34 -203 0
-36 -34 203 0
37 34 318 0
37 -34 -318 0
-37 34 -318 0
-37 -34 318 0
38 34 331 0
38 -34 -331 0
-38 34 -331 0
-38 -34 331 0
39 34 390 0
39 -34 -390 0
-39 34 -390 0
-39 -34 390 0
40 34 392 0
40 -34 -392 0
-40 34 -392 0
-40 -34 392 0
41 34 409 0
41 -34 -409 0
-41 34 -409 0
-41 -34 409 0
42 34 425 0
42 -34 -425 0
-42 34 -425 0
-42 -34 425 0
44 43 182 0
44 -43 -182 0
-44 43 -182 0
-44 -43 182 0
45 43 273 0
45 -43 -273 0
-45 43 -273 0
-45 -43 273 0
46 43 279 0
46 -43 -279 0
-46 43 -279 0
-46 -43 279 0
47 43 317 0
47 -43 -317 0
-47 43 -317 0
-47 -43 317 0
48 43 381 0
48 -43 -381 0
-48 43 -381 0
-48 -43 381 0
49 43 410 0
49 -43 -410 0
-49 43 -410 0
-49 -43 410 0
51 50 113 0
51 -50 -113 0
-51 50 -113 0
-51 -50 113 0
52 50 251 0
52 -50 -251 0
-52 50 -251 0
-52 -50 251 0
53 50 323 0
53 -50 -323 0
-53 50 -323 0
-53 -50 323 0
54 50 331 0
54 -50 -331 0
-54 50 -331 0
-54 -50 331 0
55 50 365 0
55 -50 -365 0
-55 50 -365 0
-55 -50 365 0
56 50 419 0
56 -50 -419 0
-56 50 -419 0
-56 -50 419 0
58 57 155 0
58 -57 -155 0
-58 57 -155 0
-58 -57 155 0
59 57 189 0
59 -57 -189 0
-59 57 -189 0
-59 -57 189 0
60 57 365 0
60 -57 -365 0
-60 57 -365 0
-60 -57 365 0
61 57 390 0
61 -57 -390 0
-61 57 -390 0
-61 -57 390 0
62 57 392 0
62 -57 -392 0
-62 57 -392 0
-62 -57 392 0
63 57 426 0
63 -57 -426 0
-63 57 -426 0
-63 -57 426 0
65 64 84 0
65 -64 -84 0
-65 64 -84 0
-65 -64 84 0
66 64 155 0
66 -64 -155 0
-66 64 -155 0
-66 -64 155 0
67 64 173 0
67 -64 -173 0
-67 64 -173 0
-67 -64 173 0
68 64 221 0
68 -64 -221 0
-68 64 -221 0
-68 -64 221 0
69 64 272 0
69 -64 -272 0
-69 64 -272 0
-69 -64 272 0
70 64 304 0
70 -64 -304 0
-70 64 -304 0
-70 -64 304 0
71 64 350 0
71 -64 -350 0
-71 64 -350 0
-71 -64 350 0
72 64 424 0
72 -64 -424 0
-72 64 -424 0
-72 -64 424 0
74 73 196 0
74 -73 -196 0
-74 73 -196 0
-74 -73 196 0
75 73 346 0
75 -73 -346 0
-75 73 -346 0
-75 -73 346 0
76 73 371 0
76 -73 -371 0
-76 73 -371 0
-76 -73 371 0
77 73 427 0
77 -73 -427 0
-77 73 -427 0
-77 -73 427 0
79 78 240 0
79 -78 -240 0
-79 78 -240 0
-79 -78 240 0
80 78 328 0
80 -78 -328 0
-80 78 -328 0
-80 -78 328 0
81 78 368 0
81 -78 -368 0
-81 78 -368 0
-81 -78 368 0
82 78 379 0
82 -78 -379 0
-82 78 -379 0
-82 -78 379 0
83 78 381 0
83 -78 -381 0
-83 78 -381 0
-83 -78 381 0
85 84 249 0
85 -84 -249 0
-85 84 -249 0
-85 -84 249 0
86 84 304 0
86 -84 -304 0
-86 84 -304 0
-86 -84 304 0
87 84 318 0
87 -84 -318 0
-87 84 -318 0
-87 -84 318 0
88 84 365 0
88 -84 -365 0
-88 84 -365 0
-88 -84 365 0
89 84 380 0
89 -84 -380 0
-89 84 -380 0
-89 -84 380 0
90 84 395 0
90 -84 -395 0
-90 84 -395 0
-90 -84 395 0
92 91 155 0
92 -91 -155 0
-92 91 -155 0
-92 -91 155 0
93 91 272 0
93 -91 -272 0
-93 91 -272 0
-93 -91 272 0
94 91 273 0
94 -91 -273 0
-94 91 -273 0
-94 -91 273 0
95 91 304 0
95 -91 -304 0
-95 91 -304 0
-95 -91 304 0
96 91 323 0
96 -91 -323 0
-96 91 -323 0
-96 -91 323 0
97 91 348 0
97 -91 -348 0
-97 91 -348 0
-97 -91 348 0
98 91 396 0
98 -91 -396 0
-98 91 -396 0
-98 -91 396 0
99 91 405 0
99 -91 -405 0
-99 91 -405 0
-99 -91 405 0
101 100 182 0
101 -100 -182 0
-101 100 -182 0
-101 -100 182 0
102 100 221 0
102 -100 -221 0
-102 100 -221 0
-102 -100 221 0
103 100 399 0
103 -100 -399 0
-103 100 -399 0
-103 -100 399 0
105 104 128 0
105 -104 -128 0
-105 104 -128 0
-105 -104 128 0
106 104 203 0
106 -104 -203 0
-106 104 -203 0
-106 -104 203 0
107 104 240 0
107 -104 -240 0
-107 104 -240 0
-107 -104 240 0
108 104 291 0
108 -104 -291 0
-108 104 -291 0
-108 -104 291 0
109 104 350 0
109 -104 -350 0
-109 104 -350 0
-109 -104 350 0
111 110 203 0
111 -110 -203 0
-111 110 -203 0
-111 -110 203 0
112 110 371 0
112 -110 -371 0
-112 110 -371 0
-112 -110 371 0
114 113 120 0
114 -113 -120 0
-114 113 -120 0
-114 -113 120 0
115 113 273 0
115 -113 -273 0
-115 113 -273 0
-115 -113 273 0
116 113 321 0
116 -113 -321 0
-116 113 -321 0
-116 -113 321 0
117 113 331 0
117 -113 -331 0
-117 113 -331 0
-117 -113 331 0
118 113 361 0
118 -113 -361 0
-118 113 -361 0
-118 -113 361 0
119 113 417 0
119 -113 -417 0
-119 113 -417 0
-119 -113 417 0
121 120 240 0
121 -120 -240 0
-121 120 -240 0
-121 -120 240 0
122 120 251 0
122 -120 -251 0
-122 120 -251 0
-122 -120 251 0
123 120 273 0
123 -120 -273 0
-123 120 -273 0
-123 -120 273 0
124 120 291 0
124 -120 -291 0
-124 120 -291 0
-124 -120 291 0
125 120 317 0
125 -120 -317 0
-125 120 -317 0
-125 -120 317 0
126 120 348 0
126 -120 -348 0
-126 120 -348 0
-126 -120 348 0
127 120 381 0
127 -120 -381 0
-127 120 -381 0
-127 -120 381 0
129 128 221 0
129 -128 -221 0
-129 128 -221 0
-129 -128 221 0
130 128 375 0
130 -128 -375 0
-130 128 -375 0
-130 -128 375 0
131 128 419 0
131 -128 -419 0
-131 128 -419 0
-131 -128 419 0
133 132 196 0
133 -132 -196 0
-133 132 -196 0
-133 -132 196 0
134 132 273 0
134 -132 -273 0
-134 132 -273 0
-134 -132 273 0
135 132 335 0
135 -132 -335 0
-135 132 -335 0
-135 -132 335 0
136 132 390 0
136 -132 -390 0
-136 132 -390 0
-136 -132 390 0
137 132 420 0
137 -132 -420 0
-137 132 -420 0
-137 -132 420 0
139 138 189 0
139 -138 -189 0
-139 138 -189 0
-139 -138 189 0
140 138 258 0
140 -138 -258 0
-140 138 -258 0
-140 -138 258 0
141 138 288 0
141 -138 -288 0
-141 138 -288 0
-141 -138 288 0
142 138 381 0
142 -138 -381 0
-142 138 -381 0
-142 -138 381 0
143 138 396 0
143 -138 -396 0
-143 138 -396 0
-143 -138 396 0
144 138 423 0
144 -138 -423 0
-144 138 -423 0
-144 -138 423 0
145 138 427 0
145 -138 -427 0
-145 138 -427 0
-145 -138 427 0
147 146 223 0
147 -146 -223 0
-147 146 -223 0
-147 -146 223 0
148 146 423 0
148 -146 -423 0
-148 146 -423 0
-148 -146 423 0
149 146 425 0
149 -146 -425 0
-149 146 -425 0
-149 -146 425 0
151 150 203 0
151 -150 -203 0
-151 150 -203 0
-151 -150 203 0
152 150 219 0
152 -150 -219 0
-152 150 -219 0
-152 -150 219 0
153 150 306 0
153 -150 -306 0
-153 150 -306 0
-153 -150 306 0
154 150 387 0
154 -150 -387 0
-154 150 -387 0
-154 -150 387 0
156 155 268 0
156 -155 -268 0
-156 155 -268 0
-156 -155 268 0
157 155 350 0
157 -155 -350 0
-157 155 -350 0
-157 -155 350 0
159 158 209 0
159 -158 -209 0
-159 158 -209 0
-159 -158 209 0
160 158 240 0
160 -158 -240 0
-160 158 -240 0
-160 -158 240 0
161 158 279 0
161 -158 -279 0
-161 158 -279 0
-161 -158 279 0
162 158 385 0
162 -158 -385 0
-162 158 -385 0
-162 -158 385 0
163 158 413 0
163 -158 -413 0
-163 158 -413 0
-163 -158 413 0
164 158 425 0
164 -158 -425 0
-164 158 -425 0
-164 -158 425 0
165 158 426 0
165 -158 -426 0
-165 158 -426 0
-165 -158 426 0
167 166 350 0
167 -166 -350 0
-167 166 -350 0
-167 -166 350 0
168 166 359 0
168 -166 -359 0
-168 166 -359 0
-168 -166 359 0
169 166 365 0
169 -166 -365 0
-169 166 -365 0
-169 -166 365 0
170 166 402 0
170 -166 -402 0
-170 166 -402 0
-170 -166 402 0
171 166 422 0
171 -166 -422 0
-171 166 -422 0
-171 -166 422 0
172 166 427 0
172 -166 -427 0
-172 166 -427 0
-172 -166 427 0
174 173 221 0
174 -173 -221 0
-174 173 -221 0
-174 -173 221 0
175 173 246 0
175 -173 -246 0
-175 173 -246 0
-175 -173 246 0
176 173 304 0
176 -173 -304 0
-176 173 -304 0
-176 -173 304 0
177 173 343 0
177 -173 -343 0
-177 173 -343 0
-177 -173 343 0
178 173 409 0
178 -173 -409 0
-178 173 -409 0
-178 -173 409 0
179 173 422 0
179 -173 -422 0
-179 173 -422 0
-179 -173 422 0
180 173 424 0
180 -173 -424 0
-180 173 -424 0
-180 -173 424 0
181 173 425 0
181 -173 -425 0
-181 173 -425 0
-181 -173 425 0
183 182 410 0
183 -182 -410 0
-183 182 -410 0
-183 -182 410 0
184 182 423 0
184 -182 -423 0
-184 182 -423 0
-184 -182 423 0
186 185 196 0
186 -185 -196 0
-186 185 -196 0
-186 -185 196 0
187 185 310 0
187 -185 -310 0
-187 185 -310 0
-187 -185 310 0
188 185 382 0
188 -185 -382 0
-188 185 -382 0
-188 -185 382 0
190 189 246 0
190 -189 -246 0
-190 189 -246 0
-190 -189 246 0
191 189 249 0
191 -189 -249 0
-191 189 -249 0
-191 -189 249 0
193 192 359 0
193 -192 -359 0
-193 192 -359 0
-193 -192 359 0
194 192 421 0
194 -192 -421 0
-194 192 -421 0
-194 -192 421 0
195 192 426 0
195 -192 -426 0
-195 192 -426 0
-195 -192 426 0
197 196 221 0
197 -196 -221 0
-197 196 -221 0
-197 -196 221 0
198 196 288 0
198 -196 -288 0
-198 196 -288 0
-198 -196 288 0
199 196 348 0
199 -196 -348 0
-199 196 -348 0
-199 -196 348 0
200 196 353 0
200 -196 -353 0
-200 196 -353 0
-200 -196 353 0
201 196 395 0
201 -196 -395 0
-201 196 -395 0
-201 -196 395 0
202 196 415 0
202 -196 -415 0
-202 196 -415 0
-202 -196 415 0
204 203 219 0
204 -203 -219 0
-204 203 -219 0
-204 -203 219 0
205 203 317 0
205 -203 -317 0
-205 203 -317 0
-205 -203 317 0
206 203 328 0
206 -203 -328 0
-206 203 -328 0
-206 -203 328 0
207 203 346 0
207 -203 -346 0
-207 203 -346 0
-207 -203 346 0
208 203 390 0
208 -203 -390 0
-208 203 -390 0
-208 -203 390 0
210 209 323 0
210 -209 -323 0
-210 209 -323 0
-210 -209 323 0
211 209 328 0
211 -209 -328 0
-211 209 -328 0
-211 -209 328 0
212 209 342 0
212 -209 -342 0
-212 209 -342 0
-212 -209 342 0
213 209 375 0
213 -209 -375 0
-213 209 -375 0
-213 -209 375 0
215 214 229 0
215 -214 -229 0
-215 214 -229 0
-215 -214 229 0
216 214 291 0
216 -214 -291 0
-216 214 -291 0
-216 -214 291 0
217 214 328 0
217 -214 -328 0
-217 214 -328 0
-217 -214 328 0
218 214 423 0
218 -214 -423 0
-218 214 -423 0
-218 -214 423 0
220 219 331 0
220 -219 -331 0
-220 219 -331 0
-220 -219 331 0
222 221 258 0
222 -221 -258 0
-222 221 -258 0
-222 -221 258 0
224 223 264 0
224 -223 -264 0
-224 223 -264 0
-224 -223 264 0
225 223 306 0
225 -223 -306 0
-225 223 -306 0
-225 -223 306 0
226 223 357 0
226 -223 -357 0
-226 223 -357 0
-226 -223 357 0
227 223 368 0
227 -223 -368 0
-227 223 -368 0
-227 -223 368 0
228 223 424 0
228 -223 -424 0
-228 223 -424 0
-228 -223 424 0
230 229 291 0
230 -229 -291 0
-230 229 -291 0
-230 -229 291 0
231 229 321 0
231 -229 -321 0
-231 229 -321 0
-231 -229 321 0
232 229 348 0
232 -229 -348 0
-232 229 -348 0
-232 -229 348 0
233 229 365 0
233 -229 -365 0
-233 229 -365 0
-233 -229 365 0
234 229 392 0
234 -229 -392 0
-234 229 -392 0
-234 -229 392 0
235 229 399 0
235 -229 -399 0
-235 229 -399 0
-235 -229 399 0
236 229 402 0
236 -229 -402 0
-236 229 -402 0
-236 -229 402 0
237 229 413 0
237 -229 -413 0
-237 229 -413 0
-237 -229 413 0
238 229 422 0
238 -229 -422 0
-238 229 -422 0
-238 -229 422 0
239 229 424 0
239 -229 -424 0
-239 229 -424 0
-239 -229 424 0
241 240 291 0
241 -240 -291 0
-241 240 -291 0
-241 -240 291 0
242 240 317 0
242 -240 -317 0
-242 240 -317 0
-242 -240 317 0
243 240 321 0
243 -240 -321 0
-243 240 -321 0
-243 -240 321 0
244 240 343 0
244 -240 -343 0
-244 240 -343 0
-244 -240 343 0
245 240 395 0
245 -240 -395 0
-245 240 -395 0
-245 -240 395 0
247 246 288 0
247 -246 -288 0
-247 246 -288 0
-247 -246 288 0
248 246 420 0
248 -246 -420 0
-248 246 -420 0
-248 -246 420 0
250 249 420 0
250 -249 -420 0
-250 249 -420 0
-250 -249 420 0
252 251 272 0
252 -251 -272 0
-252 251 -272 0
-252 -251 272 0
253 251 279 0
253 -251 -279 0
-253 251 -279 0
-253 -251 279 0
254 251 288 0
254 -251 -288 0
-254 251 -288 0
-254 -251 288 0
255 251 304 0
255 -251 -304 0
-255 251 -304 0
-255 -251 304 0
256 251 368 0
256 -251 -368 0
-256 251 -368 0
-256 -251 368 0
257 251 424 0
257 -251 -424 0
-257 251 -424 0
-257 -251 424 0
259 258 264 0
259 -258 -264 0
-259 258 -264 0
-259 -258 264 0
260 258 339 0
260 -258 -339 0
-260 258 -339 0
-260 -258 339 0
261 258 382 0
261 -258 -382 0
-261 258 -382 0
-261 -258 382 0
262 258 397 0
262 -258 -397 0
-262 258 -397 0
-262 -258 397 0
263 258 425 0
263 -258 -425 0
-263 258 -425 0
-263 -258 425 0
265 264 321 0
265 -264 -321 0
-265 264 -321 0
-265 -264 321 0
266 264 323 0
266 -264 -323 0
-266 264 -323 0
-266 -264 323 0
267 264 380 0
267 -264 -380 0
-267 264 -380 0
-267 -264 380 0
269 268 317 0
269 -268 -317 0
-269 268 -317 0
-269 -268 317 0
270 268 348 0
270 -268 -348 0
-270 268 -348 0
-270 -268 348 0
271 268 361 0
271 -268 -361 0
-271 268 -361 0
-271 -268 361 0
274 273 317 0
274 -273 -317 0
-274 273 -317 0
-274 -273 317 0
275 273 343 0
275 -273 -343 0
-275 273 -343 0
-275 -273 343 0
276 273 348 0
276 -273 -348 0
-276 273 -348 0
-276 -273 348 0
277 273 350 0
277 -273 -350 0
-277 273 -350 0
-277 -273 350 0
278 273 422 0
278 -273 -422 0
-278 273 -422 0
-278 -273 422 0
280 279 331 0
280 -279 -331 0
-280 279 -331 0
-280 -279 331 0
281 279 343 0
281 -279 -343 0
-281 279 -343 0
-281 -279 343 0
282 279 380 0
282 -279 -380 0
-282 279 -380 0
-282 -279 380 0
284 283 306 0
284 -283 -306 0
-284 283 -306 0
-284 -283 306 0
285 283 348 0
285 -283 -348 0
-285 283 -348 0
-285 -283 348 0
286 283 410 0
286 -283 -410 0
-286 283 -410 0
-286 -283 410 0
287 283 422 0
287 -283 -422 0
-287 283 -422 0
-287 -283 422 0
290 289 422 0
290 -289 -422 0
-290 289 -422 0
-290 -289 422 0
292 291 299 0
292 -291 -299 0
-292 291 -299 0
-292 -291 299 0
293 291 317 0
293 -291 -317 0
-293 291 -317 0
-293 -291 317 0
294 291 323 0
294 -291 -323 0
-294 291 -323 0
-294 -291 323 0
295 291 328 0
295 -291 -328 0
-295 291 -328 0
-295 -291 328 0
296 291 368 0
296 -291 -368 0
-296 291 -368 0
-296 -291 368 0
297 291 371 0
297 -291 -371 0
-297 291 -371 0
-297 -291 371 0
298 291 424 0
298 -291 -424 0
-298 291 -424 0
-298 -291 424 0
300 299 348 0
300 -299 -348 0
-300 299 -348 0
-300 -299 348 0
301 299 350 0
301 -299 -350 0
-301 299 -350 0
-301 -299 350 0
302 299 357 0
302 -299 -357 0
-302 299 -357 0
-302 -299 357 0
303 299 409 0
303 -299 -409 0
-303 299 -409 0
-303 -299 409 0
305 304 424 0
305 -304 -424 0
-305 304 -424 0
-305 -304 424 0
307 306 379 0
307 -306 -379 0
-307 306 -379 0
-307 -306 379 0
308 306 413 0
308 -306 -413 0
-308 306 -413 0
-308 -306 413 0
309 306 422 0
309 -306 -422 0
-309 306 -422 0
-309 -306 422 0
311 310 342 0
311 -310 -342 0
-311 310 -342 0
-311 -310 342 0
312 310 405 0
312 -310 -405 0
-312 310 -405 0
-312 -310 405 0
314 313 343 0
314 -313 -343 0
-314 313 -343 0
-314 -313 343 0
315 313 350 0
315 -313 -350 0
-315 313 -350 0
-315 -313 350 0
316 313 397 0
316 -313 -397 0
-316 313 -397 0
-316 -313 397 0
319 318 397 0
319 -318 -397 0
-319 318 -397 0
-319 -318 397 0
320 318 423 0
320 -318 -423 0
-320 318 -423 0
-320 -318 423 0
322 321 335 0
322 -321 -335 0
-322 321 -335 0
-322 -321 335 0
324 323 325 0
324 -323 -325 0
-324 323 -325 0
-324 -323 325 0
326 325 331 0
326 -325 -331 0
-326 325 -331 0
-326 -325 331 0
327 325 395 0
327 -325 -395 0
-327 325 -395 0
-327 -325 395 0
329 328 380 0
329 -328 -380 0
-329 328 -380 0
-329 -328 380 0
330 328 427 0
330 -328 -427 0
-330 328 -427 0
-330 -328 427 0
332 331 348 0
332 -331 -348 0
-332 331 -348 0
-332 -331 348 0
333 331 365 0
333 -331 -365 0
-333 331 -365 0
-333 -331 365 0
334 331 396 0
334 -331 -396 0
-334 331 -396 0
-334 -331 396 0
336 335 382 0
336 -335 -382 0
-336 335 -382 0
-336 -335 382 0
337 335 413 0
337 -335 -413 0
-337 335 -413 0
-337 -335 413 0
338 335 423 0
338 -335 -423 0
-338 335 -423 0
-338 -335 423 0
340 339 357 0
340 -339 -357 0
-340 339 -357 0
-340 -339 357 0
341 339 396 0
341 -339 -396 0
-341 339 -396 0
-341 -339 396 0
344 343 371 0
344 -343 -371 0
-344 343 -371 0
-344 -343 371 0
345 343 422 0
345 -343 -422 0
-345 343 -422 0
-345 -343 422 0
347 346 350 0
347 -346 -350 0
-347 346 -350 0
-347 -346 350 0
349 348 372 0
349 -348 -372 0
-349 348 -372 0
-349 -348 372 0
351 350 372 0
351 -350 -372 0
-351 350 -372 0
-351 -350 372 0
352 350 392 0
352 -350 -392 0
-352 350 -392 0
-352 -350 392 0
354 353 380 0
354 -353 -380 0
-354 353 -380 0
-354 -353 380 0
355 353 399 0
355 -353 -399 0
-355 353 -399 0
-355 -353 399 0
356 353 420 0
356 -353 -420 0
-356 353 -420 0
-356 -353 420 0
358 357 361 0
358 -357 -361 0
-358 357 -361 0
-358 -357 361 0
360 359 398 0
360 -359 -398 0
-360 359 -398 0
-360 -359 398 0
362 361 368 0
362 -361 -368 0
-362 361 -368 0
-362 -361 368 0
363 361 402 0
363 -361 -402 0
-363 361 -402 0
-363 -361 402 0
364 361 423 0
364 -361 -423 0
-364 361 -423 0
-364 -361 423 0
366 365 392 0
366 -365 -392 0
-366 365 -392 0
-366 -365 392 0
367 365 421 0
367 -365 -421 0
-367 365 -421 0
-367 -365 421 0
369 368 410 0
369 -368 -410 0
-369 368 -410 0
-369 -368 410 0
370 368 427 0
370 -368 -427 0
-370 368 -427 0
-370 -368 427 0
373 372 396 0
373 -372 -396 0
-373 372 -396 0
-373 -372 396 0
374 372 417 0
374 -372 -417 0
-374 372 -417 0
-374 -372 417 0
376 375 402 0
376 -375 -402 0
-376 375 -402 0
-376 -375 402 0
377 375 409 0
377 -375 -409 0
-377 375 -409 0
-377 -375 409 0
378 375 422 0
378 -375 -422 0
-378 375 -422 0
-378 -375 422 0
383 382 397 0
383 -382 -397 0
-383 382 -397 0
-383 -382 397 0
384 382 419 0
384 -382 -419 0
-384 382 -419 0
-384 -382 419 0
386 385 426 0
386 -385 -426 0
-386 385 -426 0
-386 -385 426 0
388 387 402 0
388 -387 -402 0
-388 387 -402 0
-388 -387 402 0
389 387 423 0
389 -387 -423 0
-389 387 -423 0
-389 -387 423 0
391 390 427 0
391 -390 -427 0
-391 390 -427 0
-391 -390 427 0
393 392 415 0
393 -392 -415 0
-393 392 -415 0
-393 -392 415 0
394 392 426 0
394 -392 -426 0
-394 392 -426 0
-394 -392 426 0
400 399 419 0
400 -399 -419 0
-400 399 -419 0
-400 -399 419 0
401 399 424 0
401 -399 -424 0
-401 399 -424 0
-401 -399 424 0
403 402 415 0
403 -402 -415 0
-403 402 -415 0
-403 -402 415 0
404 402 425 0
404 -402 -425 0
-404 402 -425 0
-404 -402 425 0
406 405 415 0
406 -405 -415 0
-406 405 -415 0
-406 -405 415 0
407 405 421 0
407 -405 -421 0
-407 405 -421 0
-407 -405 421 0
408 405 426 0
408 -405 -426 0
-408 405 -426 0
-408 -405 426 0
411 410 419 0
411 -410 -419 0
-411 410 -419 0
-411 -410 419 0
412 410 421 0
412 -410 -421 0
-412 410 -421 0
-412 -410 421 0
414 413 422 0
414 -413 -422 0
-414 413 -422 0
-414 -413 422 0
416 415 426 0
416 -415 -426 0
-416 415 -426 0
-416 -415 426 0
418 417 422 0
418 -417 -422 0
-418 417 -422 0
-418 -417 422 0
